
--- Job hw4-2.gms Start 10/12/23 16:09:48 44.3.0 8b8fb1cb WEX-WEI x86 64bit/MS Windows
--- Applying:
    C:\GAMS\44\gmsprmNT.txt
--- GAMS Parameters defined
    Input C:\Users\Rocke\OneDrive\Documents\isye524\hw\hw4\hw4-2.gms
    PageSize 0
    ScrDir C:\Users\Rocke\OneDrive\Documents\isye524\hw\hw4\225a\
    SysDir C:\GAMS\44\
    LogOption 3
    ErrMsg 1
    ErrorLog 99
    IDE 1
    LstTitleLeftAligned 1
Licensee: Introduction to Optimization (CS/ISyE/ECE 524) G230906|0002AS-GEN
          UW-Madison, CS Dept., Fall 2023, Prof. Ferris              DCE850
          C:\GAMS\44\gamslice.txt
          License Admin: Michael C. Ferris, ferris@cs.wisc.edu             
          Course license for use within the course and related course work
Processor information: 1 socket(s), 4 core(s), and 8 thread(s) available
GAMS 44.3.0   Copyright (C) 1987-2023 GAMS Development. All rights reserved
--- Starting compilation
--- hw4-2.gms(85) 3 Mb
--- Starting execution: elapsed 0:00:00.013
--- hw4-2.gms(23) 4 Mb
--- Generating LP model brooms
--- hw4-2.gms(44) 4 Mb
---   21 rows  91 columns  361 non-zeroes
--- Range statistics (absolute non-zero finite values)
--- RHS       [min, max] : [ 1.000E+00, 1.500E+01] - Zero values observed as well
--- Bound     [min, max] : [        NA,        NA] - Zero values observed as well
--- Matrix    [min, max] : [ 1.000E+00, 2.070E+01]
--- Executing CPLEX (Solvelink=2): elapsed 0:00:00.024

IBM ILOG CPLEX   44.3.0 8b8fb1cb Sep 1, 2023           WEI x86 64bit/MS Window

--- GAMS/CPLEX licensed for continuous and discrete problems.
--- GMO setup time: 0.00s
--- GMO memory 0.51 Mb (peak 0.51 Mb)
--- Dictionary memory 0.00 Mb
--- Cplex 22.1.1.0 link memory 0.00 Mb (peak 0.01 Mb)
--- Starting Cplex

Version identifier: 22.1.1.0 | 2022-11-27 | 9160aff4d
CPXPARAM_Advance                                 0
CPXPARAM_Simplex_Display                         2
CPXPARAM_Threads                                 1
CPXPARAM_MIP_Display                             4
CPXPARAM_MIP_Pool_Capacity                       0
CPXPARAM_MIP_Tolerances_AbsMIPGap                0
Tried aggregator 1 time.
LP Presolve eliminated 0 rows and 1 columns.
Reduced LP has 20 rows, 90 columns, and 270 nonzeros.
Presolve time = 0.00 sec. (0.05 ticks)

Iteration      Dual Objective            In Variable           Out Variable
     1              35.693137              flow(3,2)      flow_bal(2) artif
     2              68.693137              flow(1,9)      flow_bal(9) artif
     3              78.019010              flow(6,2)      flow_bal(6) artif
     4              92.596389             flow(10,8)     flow_bal(10) artif
     5              96.508704              flow(4,2)      flow_bal(4) artif
     6             112.096389              flow(4,5)      flow_bal(5) artif
     7             113.420197              flow(8,9)      flow_bal(1) artif
     8             114.237175              flow(3,9)      flow_bal(8) artif
     9             117.414628              flow(7,2)      flow_bal(7) artif

--- LP status (1): optimal.
--- Cplex Time: 0.00sec (det. 0.09 ticks)


Optimal solution found
Objective:          117.414628

--- Reading solution for model brooms
--- Executing after solve: elapsed 0:00:00.104
--- hw4-2.gms(63) 4 Mb
*** Status: Normal completion
--- Job hw4-2.gms Stop 10/12/23 16:09:49 elapsed 0:00:00.105
